c 
c U(n,d) graph
c graph gen seed     : 996
c number of vertices : 60
c max number of edges: 1770
c Euclidean distance : 0.600000
c data structure     : dense
c
c           Graph Stats
c number of vertices  : 60
c nonisolated vertices: 60
c number of edges     : 945
c edge density        : 0.533898
c max degree          : 51
c avg degree          : 31.50
c min degree          : 17
p col 60 945
e 1 3
e 1 4
e 1 6
e 1 7
e 1 9
e 1 10
e 1 11
e 1 12
e 1 13
e 1 15
e 1 16
e 1 17
e 1 18
e 1 20
e 1 21
e 1 22
e 1 23
e 1 25
e 1 27
e 1 28
e 1 29
e 1 30
e 1 31
e 1 32
e 1 33
e 1 34
e 1 36
e 1 38
e 1 39
e 1 40
e 1 41
e 1 42
e 1 43
e 1 47
e 1 48
e 1 50
e 1 51
e 1 54
e 1 55
e 1 57
e 1 59
e 1 60
e 2 3
e 2 5
e 2 8
e 2 10
e 2 12
e 2 13
e 2 16
e 2 19
e 2 22
e 2 25
e 2 26
e 2 28
e 2 29
e 2 34
e 2 36
e 2 38
e 2 43
e 2 44
e 2 47
e 2 52
e 2 54
e 2 55
e 2 57
e 2 58
e 3 4
e 3 7
e 3 9
e 3 11
e 3 12
e 3 13
e 3 15
e 3 16
e 3 18
e 3 19
e 3 20
e 3 22
e 3 25
e 3 27
e 3 28
e 3 29
e 3 30
e 3 32
e 3 33
e 3 34
e 3 36
e 3 38
e 3 39
e 3 40
e 3 43
e 3 47
e 3 51
e 3 54
e 3 55
e 3 57
e 3 59
e 4 9
e 4 11
e 4 12
e 4 13
e 4 15
e 4 18
e 4 20
e 4 22
e 4 27
e 4 29
e 4 30
e 4 33
e 4 34
e 4 38
e 4 39
e 4 40
e 4 43
e 4 47
e 4 51
e 4 54
e 4 59
e 5 7
e 5 8
e 5 9
e 5 10
e 5 12
e 5 14
e 5 16
e 5 24
e 5 25
e 5 26
e 5 28
e 5 31
e 5 35
e 5 37
e 5 41
e 5 44
e 5 45
e 5 46
e 5 47
e 5 49
e 5 52
e 5 53
e 5 54
e 5 55
e 5 56
e 5 57
e 5 58
e 5 60
e 6 7
e 6 9
e 6 10
e 6 11
e 6 12
e 6 14
e 6 15
e 6 17
e 6 21
e 6 23
e 6 24
e 6 27
e 6 28
e 6 30
e 6 31
e 6 32
e 6 33
e 6 38
e 6 39
e 6 41
e 6 42
e 6 45
e 6 46
e 6 48
e 6 49
e 6 50
e 6 53
e 6 54
e 6 56
e 6 57
e 6 59
e 6 60
e 7 8
e 7 9
e 7 10
e 7 11
e 7 12
e 7 13
e 7 14
e 7 15
e 7 16
e 7 17
e 7 21
e 7 22
e 7 23
e 7 24
e 7 25
e 7 26
e 7 27
e 7 28
e 7 29
e 7 30
e 7 31
e 7 32
e 7 33
e 7 35
e 7 36
e 7 37
e 7 38
e 7 39
e 7 41
e 7 42
e 7 43
e 7 44
e 7 45
e 7 46
e 7 47
e 7 48
e 7 49
e 7 50
e 7 51
e 7 52
e 7 53
e 7 54
e 7 55
e 7 56
e 7 57
e 7 59
e 7 60
e 8 10
e 8 12
e 8 14
e 8 16
e 8 19
e 8 22
e 8 25
e 8 26
e 8 28
e 8 29
e 8 34
e 8 36
e 8 37
e 8 44
e 8 47
e 8 49
e 8 52
e 8 54
e 8 55
e 8 56
e 8 57
e 8 58
e 9 10
e 9 11
e 9 12
e 9 13
e 9 14
e 9 15
e 9 16
e 9 17
e 9 18
e 9 20
e 9 21
e 9 22
e 9 23
e 9 24
e 9 25
e 9 27
e 9 28
e 9 29
e 9 30
e 9 31
e 9 32
e 9 33
e 9 34
e 9 36
e 9 38
e 9 39
e 9 41
e 9 42
e 9 43
e 9 44
e 9 45
e 9 46
e 9 47
e 9 48
e 9 49
e 9 50
e 9 51
e 9 52
e 9 53
e 9 54
e 9 55
e 9 56
e 9 57
e 9 59
e 9 60
e 10 12
e 10 14
e 10 16
e 10 19
e 10 21
e 10 22
e 10 24
e 10 25
e 10 26
e 10 27
e 10 28
e 10 29
e 10 30
e 10 31
e 10 32
e 10 35
e 10 36
e 10 37
e 10 38
e 10 41
e 10 43
e 10 44
e 10 45
e 10 46
e 10 47
e 10 48
e 10 49
e 10 52
e 10 53
e 10 54
e 10 55
e 10 56
e 10 57
e 10 59
e 10 60
e 11 12
e 11 13
e 11 15
e 11 18
e 11 20
e 11 22
e 11 23
e 11 27
e 11 28
e 11 29
e 11 30
e 11 31
e 11 32
e 11 33
e 11 34
e 11 38
e 11 39
e 11 40
e 11 42
e 11 43
e 11 47
e 11 48
e 11 51
e 11 54
e 11 57
e 11 59
e 12 13
e 12 14
e 12 15
e 12 16
e 12 19
e 12 20
e 12 22
e 12 25
e 12 26
e 12 27
e 12 28
e 12 29
e 12 30
e 12 31
e 12 32
e 12 33
e 12 34
e 12 36
e 12 38
e 12 39
e 12 43
e 12 44
e 12 47
e 12 48
e 12 49
e 12 51
e 12 52
e 12 54
e 12 55
e 12 56
e 12 57
e 12 58
e 12 59
e 13 15
e 13 16
e 13 18
e 13 19
e 13 20
e 13 22
e 13 25
e 13 27
e 13 28
e 13 29
e 13 30
e 13 32
e 13 33
e 13 34
e 13 36
e 13 38
e 13 39
e 13 40
e 13 43
e 13 47
e 13 51
e 13 54
e 13 55
e 13 57
e 13 59
e 14 24
e 14 25
e 14 26
e 14 28
e 14 31
e 14 32
e 14 35
e 14 37
e 14 41
e 14 44
e 14 45
e 14 46
e 14 47
e 14 48
e 14 49
e 14 52
e 14 53
e 14 54
e 14 56
e 14 57
e 14 60
e 15 17
e 15 18
e 15 20
e 15 21
e 15 22
e 15 23
e 15 27
e 15 28
e 15 29
e 15 30
e 15 31
e 15 32
e 15 33
e 15 38
e 15 39
e 15 40
e 15 41
e 15 42
e 15 43
e 15 47
e 15 48
e 15 50
e 15 51
e 15 54
e 15 57
e 15 59
e 16 19
e 16 22
e 16 25
e 16 26
e 16 27
e 16 28
e 16 29
e 16 30
e 16 33
e 16 34
e 16 36
e 16 38
e 16 43
e 16 44
e 16 47
e 16 49
e 16 52
e 16 54
e 16 55
e 16 57
e 16 58
e 17 21
e 17 23
e 17 30
e 17 31
e 17 32
e 17 39
e 17 41
e 17 42
e 17 48
e 17 50
e 17 59
e 17 60
e 18 20
e 18 22
e 18 27
e 18 29
e 18 30
e 18 33
e 18 34
e 18 38
e 18 39
e 18 40
e 18 43
e 18 51
e 18 54
e 18 59
e 19 22
e 19 25
e 19 26
e 19 27
e 19 28
e 19 29
e 19 30
e 19 34
e 19 36
e 19 38
e 19 43
e 19 44
e 19 47
e 19 52
e 19 54
e 19 55
e 19 57
e 19 58
e 20 22
e 20 27
e 20 29
e 20 30
e 20 33
e 20 34
e 20 38
e 20 39
e 20 40
e 20 43
e 20 51
e 20 54
e 20 59
e 21 23
e 21 24
e 21 30
e 21 31
e 21 32
e 21 39
e 21 41
e 21 42
e 21 45
e 21 46
e 21 48
e 21 50
e 21 53
e 21 56
e 21 57
e 21 59
e 21 60
e 22 25
e 22 26
e 22 27
e 22 28
e 22 29
e 22 30
e 22 33
e 22 34
e 22 36
e 22 38
e 22 40
e 22 43
e 22 44
e 22 47
e 22 51
e 22 52
e 22 54
e 22 55
e 22 57
e 22 58
e 22 59
e 23 27
e 23 30
e 23 31
e 23 32
e 23 33
e 23 38
e 23 39
e 23 41
e 23 42
e 23 45
e 23 46
e 23 48
e 23 50
e 23 51
e 23 54
e 23 59
e 23 60
e 24 28
e 24 31
e 24 32
e 24 35
e 24 37
e 24 41
e 24 44
e 24 45
e 24 46
e 24 48
e 24 49
e 24 52
e 24 53
e 24 56
e 24 57
e 24 60
e 25 26
e 25 27
e 25 28
e 25 29
e 25 30
e 25 31
e 25 34
e 25 36
e 25 37
e 25 38
e 25 43
e 25 44
e 25 47
e 25 49
e 25 52
e 25 54
e 25 55
e 25 56
e 25 57
e 25 58
e 26 28
e 26 29
e 26 34
e 26 36
e 26 38
e 26 43
e 26 44
e 26 47
e 26 49
e 26 52
e 26 54
e 26 55
e 26 57
e 26 58
e 27 28
e 27 29
e 27 30
e 27 31
e 27 32
e 27 33
e 27 34
e 27 36
e 27 38
e 27 39
e 27 40
e 27 42
e 27 43
e 27 47
e 27 48
e 27 51
e 27 54
e 27 55
e 27 57
e 27 59
e 28 29
e 28 30
e 28 31
e 28 32
e 28 33
e 28 34
e 28 35
e 28 36
e 28 37
e 28 38
e 28 39
e 28 41
e 28 43
e 28 44
e 28 45
e 28 46
e 28 47
e 28 48
e 28 49
e 28 52
e 28 53
e 28 54
e 28 55
e 28 56
e 28 57
e 28 58
e 28 59
e 28 60
e 29 30
e 29 31
e 29 32
e 29 33
e 29 34
e 29 36
e 29 38
e 29 39
e 29 40
e 29 43
e 29 44
e 29 47
e 29 51
e 29 52
e 29 54
e 29 55
e 29 57
e 29 58
e 29 59
e 30 31
e 30 32
e 30 33
e 30 34
e 30 36
e 30 38
e 30 39
e 30 40
e 30 41
e 30 42
e 30 43
e 30 47
e 30 48
e 30 50
e 30 51
e 30 54
e 30 55
e 30 57
e 30 59
e 31 32
e 31 33
e 31 35
e 31 37
e 31 38
e 31 39
e 31 41
e 31 42
e 31 43
e 31 44
e 31 45
e 31 46
e 31 47
e 31 48
e 31 49
e 31 50
e 31 53
e 31 54
e 31 56
e 31 57
e 31 59
e 31 60
e 32 33
e 32 38
e 32 39
e 32 41
e 32 42
e 32 43
e 32 45
e 32 46
e 32 47
e 32 48
e 32 49
e 32 50
e 32 51
e 32 53
e 32 54
e 32 56
e 32 57
e 32 59
e 32 60
e 33 34
e 33 36
e 33 38
e 33 39
e 33 40
e 33 42
e 33 43
e 33 47
e 33 48
e 33 51
e 33 54
e 33 57
e 33 59
e 34 36
e 34 38
e 34 40
e 34 43
e 34 44
e 34 47
e 34 52
e 34 54
e 34 55
e 34 57
e 34 58
e 35 37
e 35 41
e 35 44
e 35 45
e 35 46
e 35 48
e 35 49
e 35 52
e 35 53
e 35 56
e 35 57
e 35 60
e 36 38
e 36 43
e 36 44
e 36 47
e 36 52
e 36 54
e 36 55
e 36 57
e 36 58
e 37 41
e 37 44
e 37 45
e 37 46
e 37 48
e 37 49
e 37 52
e 37 53
e 37 56
e 37 57
e 37 60
e 38 39
e 38 40
e 38 43
e 38 44
e 38 47
e 38 48
e 38 51
e 38 52
e 38 54
e 38 55
e 38 57
e 38 59
e 39 40
e 39 41
e 39 42
e 39 43
e 39 48
e 39 50
e 39 51
e 39 54
e 39 57
e 39 59
e 40 43
e 40 51
e 40 54
e 40 59
e 41 42
e 41 44
e 41 45
e 41 46
e 41 48
e 41 49
e 41 50
e 41 53
e 41 54
e 41 56
e 41 57
e 41 59
e 41 60
e 42 48
e 42 50
e 42 51
e 42 59
e 42 60
e 43 47
e 43 51
e 43 52
e 43 54
e 43 55
e 43 57
e 43 59
e 44 45
e 44 46
e 44 47
e 44 49
e 44 52
e 44 53
e 44 54
e 44 55
e 44 56
e 44 57
e 44 58
e 44 60
e 45 46
e 45 48
e 45 49
e 45 53
e 45 56
e 45 57
e 45 60
e 46 48
e 46 49
e 46 53
e 46 56
e 46 57
e 46 60
e 47 49
e 47 52
e 47 54
e 47 55
e 47 57
e 47 58
e 47 59
e 48 49
e 48 50
e 48 53
e 48 54
e 48 56
e 48 57
e 48 59
e 48 60
e 49 52
e 49 53
e 49 54
e 49 55
e 49 56
e 49 57
e 49 60
e 50 59
e 50 60
e 51 54
e 51 59
e 52 53
e 52 54
e 52 55
e 52 56
e 52 57
e 52 58
e 53 56
e 53 57
e 53 60
e 54 55
e 54 57
e 54 59
e 55 57
e 55 58
e 56 57
e 56 60
e 57 59
e 57 60
e 59 60
